784 1512
1 2 5
1 29 5
2 3 4
2 30 3
3 4 2
3 31 2
4 5 3
4 32 2
5 6 4
5 33 4
6 7 1
6 34 2
7 8 4
7 35 3
8 9 5
8 36 1
9 10 3
9 37 2
10 11 2
10 38 4
11 12 5
11 39 5
12 13 3
12 40 4
13 14 2
13 41 3
14 15 4
14 42 3
15 16 5
15 43 3
16 17 3
16 44 2
17 18 3
17 45 1
18 19 4
18 46 5
19 20 4
19 47 4
20 21 1
20 48 5
21 22 4
21 49 4
22 23 2
22 50 4
23 24 3
23 51 4
24 25 5
24 52 2
25 26 1
25 53 3
26 27 4
26 54 3
27 28 4
27 55 3
28 56 1
29 30 1
29 57 1
30 31 1
30 58 3
31 32 2
31 59 3
32 33 5
32 60 2
33 34 1
33 61 1
34 35 3
34 62 3
35 36 3
35 63 2
36 37 2
36 64 3
37 38 5
37 65 2
38 39 4
38 66 1
39 40 2
39 67 4
40 41 4
40 68 1
41 42 2
41 69 3
42 43 2
42 70 3
43 44 3
43 71 2
44 45 3
44 72 4
45 46 2
45 73 4
46 47 3
46 74 2
47 48 1
47 75 3
48 49 1
48 76 4
49 50 4
49 77 3
50 51 4
50 78 3
51 52 3
51 79 3
52 53 4
52 80 4
53 54 5
53 81 3
54 55 1
54 82 1
55 56 1
55 83 5
56 84 5
57 58 4
57 85 1
58 59 1
58 86 2
59 60 4
59 87 4
60 61 1
60 88 2
61 62 2
61 89 3
62 63 4
62 90 2
63 64 4
63 91 5
64 65 5
64 92 1
65 66 5
65 93 4
66 67 5
66 94 2
67 68 3
67 95 2
68 69 3
68 96 5
69 70 3
69 97 4
70 71 1
70 98 5
71 72 4
71 99 1
72 73 4
72 100 3
73 74 5
73 101 3
74 75 4
74 102 1
75 76 3
75 103 1
76 77 4
76 104 1
77 78 1
77 105 1
78 79 4
78 106 5
79 80 5
79 107 3
80 81 4
80 108 5
81 82 5
81 109 5
82 83 5
82 110 4
83 84 4
83 111 4
84 112 2
85 86 3
85 113 3
86 87 1
86 114 1
87 88 5
87 115 5
88 89 3
88 116 5
89 90 1
89 117 1
90 91 1
90 118 5
91 92 4
91 119 1
92 93 1
92 120 2
93 94 2
93 121 4
94 95 3
94 122 2
95 96 3
95 123 5
96 97 3
96 124 3
97 98 5
97 125 1
98 99 2
98 126 2
99 100 4
99 127 5
100 101 3
100 128 5
101 102 3
101 129 4
102 103 4
102 130 1
103 104 1
103 131 2
104 105 2
104 132 4
105 106 5
105 133 3
106 107 3
106 134 5
107 108 5
107 135 2
108 109 1
108 136 3
109 110 1
109 137 4
110 111 1
110 138 4
111 112 1
111 139 5
112 140 1
113 114 3
113 141 5
114 115 3
114 142 4
115 116 4
115 143 4
116 117 5
116 144 1
117 118 4
117 145 5
118 119 3
118 146 4
119 120 2
119 147 3
120 121 2
120 148 1
121 122 4
121 149 3
122 123 2
122 150 3
123 124 1
123 151 4
124 125 5
124 152 5
125 126 2
125 153 5
126 127 5
126 154 4
127 128 5
127 155 5
128 129 2
128 156 5
129 130 5
129 157 2
130 131 5
130 158 3
131 132 4
131 159 2
132 133 5
132 160 2
133 134 5
133 161 2
134 135 5
134 162 5
135 136 3
135 163 4
136 137 4
136 164 4
137 138 4
137 165 3
138 139 1
138 166 1
139 140 5
139 167 4
140 168 5
141 142 1
141 169 5
142 143 1
142 170 1
143 144 2
143 171 5
144 145 4
144 172 1
145 146 5
145 173 1
146 147 3
146 174 3
147 148 5
147 175 3
148 149 5
148 176 5
149 150 3
149 177 5
150 151 2
150 178 1
151 152 3
151 179 3
152 153 4
152 180 1
153 154 5
153 181 5
154 155 4
154 182 2
155 156 1
155 183 3
156 157 3
156 184 3
157 158 3
157 185 4
158 159 3
158 186 1
159 160 5
159 187 1
160 161 3
160 188 3
161 162 3
161 189 2
162 163 3
162 190 5
163 164 3
163 191 5
164 165 5
164 192 4
165 166 3
165 193 4
166 167 5
166 194 1
167 168 1
167 195 2
168 196 4
169 170 5
169 197 1
170 171 4
170 198 4
171 172 1
171 199 4
172 173 4
172 200 1
173 174 5
173 201 5
174 175 3
174 202 5
175 176 2
175 203 4
176 177 3
176 204 1
177 178 2
177 205 2
178 179 2
178 206 4
179 180 1
179 207 3
180 181 5
180 208 3
181 182 4
181 209 1
182 183 3
182 210 2
183 184 1
183 211 5
184 185 5
184 212 4
185 186 4
185 213 4
186 187 2
186 214 4
187 188 5
187 215 2
188 189 2
188 216 1
189 190 2
189 217 2
190 191 3
190 218 3
191 192 1
191 219 3
192 193 4
192 220 3
193 194 2
193 221 5
194 195 5
194 222 2
195 196 3
195 223 4
196 224 3
197 198 4
197 225 4
198 199 2
198 226 4
199 200 2
199 227 2
200 201 4
200 228 3
201 202 5
201 229 4
202 203 3
202 230 5
203 204 3
203 231 4
204 205 2
204 232 1
205 206 5
205 233 2
206 207 1
206 234 4
207 208 3
207 235 5
208 209 4
208 236 1
209 210 1
209 237 5
210 211 2
210 238 1
211 212 5
211 239 1
212 213 4
212 240 2
213 214 5
213 241 4
214 215 4
214 242 1
215 216 2
215 243 4
216 217 4
216 244 1
217 218 2
217 245 1
218 219 3
218 246 4
219 220 5
219 247 1
220 221 5
220 248 1
221 222 5
221 249 1
222 223 2
222 250 3
223 224 1
223 251 2
224 252 3
225 226 1
225 253 5
226 227 2
226 254 4
227 228 5
227 255 2
228 229 4
228 256 4
229 230 2
229 257 3
230 231 5
230 258 1
231 232 1
231 259 4
232 233 4
232 260 1
233 234 3
233 261 3
234 235 2
234 262 1
235 236 4
235 263 3
236 237 4
236 264 3
237 238 2
237 265 5
238 239 4
238 266 3
239 240 4
239 267 1
240 241 1
240 268 3
241 242 4
241 269 1
242 243 5
242 270 5
243 244 1
243 271 5
244 245 4
244 272 3
245 246 3
245 273 4
246 247 3
246 274 3
247 248 3
247 275 1
248 249 2
248 276 4
249 250 2
249 277 3
250 251 3
250 278 5
251 252 1
251 279 5
252 280 5
253 254 1
253 281 2
254 255 3
254 282 3
255 256 4
255 283 3
256 257 3
256 284 3
257 258 1
257 285 3
258 259 1
258 286 3
259 260 4
259 287 4
260 261 1
260 288 5
261 262 4
261 289 3
262 263 5
262 290 2
263 264 1
263 291 3
264 265 3
264 292 3
265 266 2
265 293 1
266 267 5
266 294 1
267 268 4
267 295 2
268 269 4
268 296 5
269 270 3
269 297 3
270 271 4
270 298 3
271 272 3
271 299 1
272 273 3
272 300 4
273 274 1
273 301 3
274 275 5
274 302 3
275 276 1
275 303 1
276 277 2
276 304 2
277 278 3
277 305 4
278 279 3
278 306 4
279 280 3
279 307 2
280 308 3
281 282 2
281 309 5
282 283 4
282 310 2
283 284 3
283 311 5
284 285 5
284 312 5
285 286 2
285 313 4
286 287 5
286 314 2
287 288 4
287 315 5
288 289 2
288 316 2
289 290 5
289 317 1
290 291 1
290 318 2
291 292 5
291 319 5
292 293 5
292 320 3
293 294 1
293 321 3
294 295 5
294 322 5
295 296 4
295 323 4
296 297 3
296 324 3
297 298 4
297 325 4
298 299 5
298 326 4
299 300 3
299 327 4
300 301 3
300 328 2
301 302 5
301 329 3
302 303 5
302 330 5
303 304 5
303 331 4
304 305 3
304 332 4
305 306 2
305 333 1
306 307 4
306 334 5
307 308 4
307 335 3
308 336 3
309 310 4
309 337 3
310 311 1
310 338 5
311 312 1
311 339 4
312 313 4
312 340 1
313 314 5
313 341 4
314 315 3
314 342 3
315 316 3
315 343 5
316 317 4
316 344 3
317 318 3
317 345 3
318 319 5
318 346 1
319 320 2
319 347 3
320 321 2
320 348 5
321 322 4
321 349 1
322 323 1
322 350 4
323 324 5
323 351 3
324 325 2
324 352 4
325 326 4
325 353 3
326 327 5
326 354 5
327 328 5
327 355 1
328 329 3
328 356 1
329 330 5
329 357 5
330 331 4
330 358 2
331 332 1
331 359 4
332 333 5
332 360 4
333 334 1
333 361 2
334 335 3
334 362 2
335 336 3
335 363 5
336 364 4
337 338 4
337 365 3
338 339 2
338 366 1
339 340 3
339 367 2
340 341 5
340 368 5
341 342 1
341 369 3
342 343 1
342 370 2
343 344 4
343 371 4
344 345 3
344 372 3
345 346 4
345 373 5
346 347 1
346 374 4
347 348 3
347 375 3
348 349 4
348 376 1
349 350 5
349 377 3
350 351 3
350 378 1
351 352 5
351 379 3
352 353 4
352 380 1
353 354 4
353 381 5
354 355 3
354 382 4
355 356 1
355 383 2
356 357 3
356 384 2
357 358 4
357 385 2
358 359 1
358 386 4
359 360 3
359 387 1
360 361 2
360 388 4
361 362 3
361 389 5
362 363 4
362 390 3
363 364 4
363 391 3
364 392 2
365 366 4
365 393 2
366 367 4
366 394 4
367 368 1
367 395 4
368 369 1
368 396 2
369 370 5
369 397 5
370 371 4
370 398 4
371 372 4
371 399 1
372 373 4
372 400 5
373 374 3
373 401 2
374 375 1
374 402 5
375 376 2
375 403 4
376 377 5
376 404 4
377 378 5
377 405 1
378 379 3
378 406 4
379 380 2
379 407 4
380 381 1
380 408 3
381 382 2
381 409 5
382 383 1
382 410 5
383 384 4
383 411 4
384 385 5
384 412 1
385 386 3
385 413 2
386 387 3
386 414 1
387 388 3
387 415 2
388 389 4
388 416 5
389 390 2
389 417 4
390 391 2
390 418 2
391 392 3
391 419 2
392 420 4
393 394 3
393 421 3
394 395 5
394 422 5
395 396 1
395 423 4
396 397 2
396 424 1
397 398 4
397 425 5
398 399 2
398 426 2
399 400 1
399 427 1
400 401 5
400 428 1
401 402 2
401 429 2
402 403 5
402 430 5
403 404 2
403 431 1
404 405 4
404 432 3
405 406 5
405 433 4
406 407 4
406 434 1
407 408 2
407 435 5
408 409 2
408 436 3
409 410 5
409 437 5
410 411 1
410 438 3
411 412 4
411 439 4
412 413 2
412 440 1
413 414 3
413 441 4
414 415 3
414 442 2
415 416 4
415 443 5
416 417 2
416 444 3
417 418 5
417 445 1
418 419 4
418 446 1
419 420 3
419 447 1
420 448 5
421 422 2
421 449 1
422 423 2
422 450 3
423 424 2
423 451 1
424 425 3
424 452 3
425 426 1
425 453 5
426 427 5
426 454 3
427 428 2
427 455 1
428 429 1
428 456 3
429 430 5
429 457 4
430 431 2
430 458 5
431 432 3
431 459 2
432 433 5
432 460 5
433 434 1
433 461 3
434 435 2
434 462 2
435 436 3
435 463 5
436 437 1
436 464 3
437 438 4
437 465 1
438 439 3
438 466 1
439 440 4
439 467 2
440 441 2
440 468 3
441 442 3
441 469 3
442 443 5
442 470 1
443 444 3
443 471 5
444 445 5
444 472 4
445 446 5
445 473 2
446 447 1
446 474 2
447 448 2
447 475 2
448 476 3
449 450 3
449 477 1
450 451 1
450 478 5
451 452 2
451 479 1
452 453 4
452 480 1
453 454 5
453 481 2
454 455 3
454 482 2
455 456 2
455 483 1
456 457 1
456 484 1
457 458 4
457 485 3
458 459 4
458 486 5
459 460 5
459 487 3
460 461 1
460 488 3
461 462 5
461 489 4
462 463 4
462 490 2
463 464 1
463 491 5
464 465 5
464 492 4
465 466 2
465 493 2
466 467 2
466 494 4
467 468 4
467 495 3
468 469 4
468 496 5
469 470 5
469 497 2
470 471 2
470 498 4
471 472 1
471 499 3
472 473 4
472 500 3
473 474 1
473 501 3
474 475 2
474 502 1
475 476 2
475 503 2
476 504 4
477 478 2
477 505 1
478 479 3
478 506 2
479 480 2
479 507 1
480 481 4
480 508 1
481 482 2
481 509 4
482 483 3
482 510 3
483 484 2
483 511 2
484 485 5
484 512 5
485 486 4
485 513 5
486 487 3
486 514 3
487 488 2
487 515 5
488 489 2
488 516 4
489 490 2
489 517 4
490 491 2
490 518 2
491 492 4
491 519 4
492 493 4
492 520 1
493 494 3
493 521 5
494 495 1
494 522 5
495 496 5
495 523 3
496 497 4
496 524 5
497 498 5
497 525 2
498 499 4
498 526 5
499 500 4
499 527 3
500 501 2
500 528 3
501 502 4
501 529 4
502 503 4
502 530 4
503 504 4
503 531 5
504 532 2
505 506 4
505 533 1
506 507 4
506 534 1
507 508 2
507 535 5
508 509 2
508 536 2
509 510 2
509 537 4
510 511 5
510 538 5
511 512 1
511 539 2
512 513 4
512 540 3
513 514 3
513 541 2
514 515 2
514 542 3
515 516 1
515 543 2
516 517 4
516 544 4
517 518 5
517 545 4
518 519 5
518 546 5
519 520 2
519 547 1
520 521 3
520 548 1
521 522 1
521 549 1
522 523 4
522 550 1
523 524 2
523 551 4
524 525 1
524 552 4
525 526 5
525 553 3
526 527 4
526 554 3
527 528 2
527 555 4
528 529 2
528 556 1
529 530 3
529 557 4
530 531 4
530 558 3
531 532 2
531 559 3
532 560 4
533 534 4
533 561 1
534 535 3
534 562 4
535 536 4
535 563 2
536 537 3
536 564 1
537 538 5
537 565 5
538 539 2
538 566 4
539 540 4
539 567 1
540 541 3
540 568 2
541 542 4
541 569 2
542 543 1
542 570 3
543 544 2
543 571 5
544 545 1
544 572 2
545 546 5
545 573 5
546 547 2
546 574 5
547 548 5
547 575 3
548 549 2
548 576 4
549 550 1
549 577 2
550 551 2
550 578 3
551 552 4
551 579 3
552 553 5
552 580 4
553 554 3
553 581 1
554 555 3
554 582 1
555 556 2
555 583 3
556 557 5
556 584 4
557 558 2
557 585 4
558 559 2
558 586 2
559 560 3
559 587 3
560 588 1
561 562 2
561 589 1
562 563 3
562 590 5
563 564 3
563 591 4
564 565 4
564 592 4
565 566 5
565 593 2
566 567 4
566 594 1
567 568 2
567 595 2
568 569 5
568 596 3
569 570 4
569 597 3
570 571 3
570 598 2
571 572 1
571 599 3
572 573 1
572 600 3
573 574 4
573 601 3
574 575 4
574 602 2
575 576 3
575 603 3
576 577 3
576 604 4
577 578 5
577 605 4
578 579 3
578 606 5
579 580 3
579 607 5
580 581 4
580 608 4
581 582 1
581 609 2
582 583 4
582 610 4
583 584 5
583 611 4
584 585 1
584 612 3
585 586 2
585 613 1
586 587 2
586 614 3
587 588 4
587 615 1
588 616 3
589 590 1
589 617 4
590 591 4
590 618 3
591 592 5
591 619 1
592 593 1
592 620 3
593 594 2
593 621 4
594 595 1
594 622 2
595 596 2
595 623 4
596 597 1
596 624 5
597 598 3
597 625 3
598 599 4
598 626 3
599 600 4
599 627 5
600 601 1
600 628 1
601 602 3
601 629 3
602 603 4
602 630 3
603 604 3
603 631 4
604 605 2
604 632 2
605 606 4
605 633 3
606 607 4
606 634 1
607 608 5
607 635 2
608 609 4
608 636 2
609 610 4
609 637 2
610 611 1
610 638 1
611 612 3
611 639 1
612 613 4
612 640 2
613 614 2
613 641 4
614 615 4
614 642 1
615 616 3
615 643 5
616 644 4
617 618 2
617 645 3
618 619 4
618 646 2
619 620 2
619 647 3
620 621 5
620 648 3
621 622 4
621 649 1
622 623 4
622 650 1
623 624 3
623 651 5
624 625 1
624 652 2
625 626 5
625 653 5
626 627 1
626 654 1
627 628 1
627 655 1
628 629 3
628 656 4
629 630 2
629 657 4
630 631 2
630 658 4
631 632 1
631 659 4
632 633 3
632 660 5
633 634 2
633 661 4
634 635 3
634 662 4
635 636 1
635 663 2
636 637 4
636 664 2
637 638 1
637 665 3
638 639 4
638 666 5
639 640 5
639 667 1
640 641 5
640 668 2
641 642 2
641 669 5
642 643 3
642 670 4
643 644 4
643 671 3
644 672 3
645 646 5
645 673 5
646 647 2
646 674 3
647 648 4
647 675 2
648 649 1
648 676 5
649 650 5
649 677 1
650 651 4
650 678 1
651 652 1
651 679 5
652 653 5
652 680 1
653 654 1
653 681 1
654 655 3
654 682 2
655 656 5
655 683 4
656 657 2
656 684 5
657 658 5
657 685 1
658 659 4
658 686 3
659 660 2
659 687 4
660 661 4
660 688 4
661 662 1
661 689 2
662 663 5
662 690 5
663 664 5
663 691 5
664 665 5
664 692 1
665 666 2
665 693 2
666 667 4
666 694 3
667 668 2
667 695 3
668 669 4
668 696 5
669 670 4
669 697 3
670 671 5
670 698 5
671 672 5
671 699 3
672 700 1
673 674 1
673 701 4
674 675 3
674 702 2
675 676 2
675 703 5
676 677 2
676 704 3
677 678 4
677 705 1
678 679 3
678 706 4
679 680 4
679 707 4
680 681 3
680 708 1
681 682 1
681 709 1
682 683 4
682 710 2
683 684 4
683 711 3
684 685 2
684 712 5
685 686 3
685 713 3
686 687 5
686 714 3
687 688 4
687 715 4
688 689 4
688 716 2
689 690 4
689 717 2
690 691 4
690 718 2
691 692 4
691 719 2
692 693 5
692 720 2
693 694 3
693 721 4
694 695 1
694 722 1
695 696 5
695 723 2
696 697 2
696 724 2
697 698 2
697 725 4
698 699 4
698 726 2
699 700 3
699 727 4
700 728 3
701 702 3
701 729 2
702 703 5
702 730 4
703 704 1
703 731 5
704 705 2
704 732 3
705 706 3
705 733 5
706 707 2
706 734 5
707 708 2
707 735 4
708 709 2
708 736 1
709 710 1
709 737 3
710 711 4
710 738 4
711 712 3
711 739 5
712 713 3
712 740 4
713 714 4
713 741 1
714 715 2
714 742 3
715 716 3
715 743 1
716 717 2
716 744 5
717 718 1
717 745 3
718 719 2
718 746 2
719 720 4
719 747 1
720 721 4
720 748 4
721 722 2
721 749 2
722 723 4
722 750 2
723 724 1
723 751 4
724 725 5
724 752 5
725 726 1
725 753 4
726 727 2
726 754 3
727 728 5
727 755 4
728 756 4
729 730 5
729 757 5
730 731 2
730 758 4
731 732 3
731 759 4
732 733 3
732 760 4
733 734 3
733 761 4
734 735 3
734 762 2
735 736 2
735 763 2
736 737 2
736 764 1
737 738 4
737 765 4
738 739 1
738 766 3
739 740 5
739 767 3
740 741 1
740 768 5
741 742 1
741 769 3
742 743 5
742 770 3
743 744 3
743 771 2
744 745 1
744 772 4
745 746 2
745 773 2
746 747 3
746 774 2
747 748 3
747 775 4
748 749 2
748 776 4
749 750 4
749 777 4
750 751 3
750 778 3
751 752 2
751 779 3
752 753 2
752 780 5
753 754 4
753 781 3
754 755 3
754 782 5
755 756 5
755 783 1
756 784 5
757 758 2
758 759 1
759 760 4
760 761 3
761 762 2
762 763 2
763 764 5
764 765 1
765 766 3
766 767 1
767 768 2
768 769 2
769 770 1
770 771 3
771 772 3
772 773 1
773 774 2
774 775 4
775 776 2
776 777 1
777 778 3
778 779 2
779 780 4
780 781 2
781 782 2
782 783 5
783 784 5
